pure_adt/tip2015_nicomachus_theorem.smt2
(set-logic HORN)
(declare-datatypes ((Nat_420 0)) (((Z_1483 ) (S_350 (unS_498 Nat_420)))))
(declare-fun diseqNat_420 (Nat_420 Nat_420) Bool)
(declare-fun unS_499 (Nat_420 Nat_420) Bool)
(declare-fun isZ_322 (Nat_420) Bool)
(declare-fun isS_322 (Nat_420) Bool)
(assert (forall ((x_46217 Nat_420))
	(unS_499 x_46217 (S_350 x_46217))))
(assert (isZ_322 Z_1483))
(assert (forall ((x_46219 Nat_420))
	(isS_322 (S_350 x_46219))))
(assert (forall ((x_46220 Nat_420))
	(diseqNat_420 Z_1483 (S_350 x_46220))))
(assert (forall ((x_46221 Nat_420))
	(diseqNat_420 (S_350 x_46221) Z_1483)))
(assert (forall ((x_46222 Nat_420) (x_46223 Nat_420))
	(=> (diseqNat_420 x_46222 x_46223)
	    (diseqNat_420 (S_350 x_46222) (S_350 x_46223)))))
(declare-fun add_267 (Nat_420 Nat_420 Nat_420) Bool)
(declare-fun minus_264 (Nat_420 Nat_420 Nat_420) Bool)
(declare-fun le_249 (Nat_420 Nat_420) Bool)
(declare-fun ge_249 (Nat_420 Nat_420) Bool)
(declare-fun lt_265 (Nat_420 Nat_420) Bool)
(declare-fun gt_252 (Nat_420 Nat_420) Bool)
(declare-fun mult_249 (Nat_420 Nat_420 Nat_420) Bool)
(declare-fun div_249 (Nat_420 Nat_420 Nat_420) Bool)
(declare-fun mod_251 (Nat_420 Nat_420 Nat_420) Bool)
(assert (forall ((y_1647 Nat_420))
	(add_267 y_1647 Z_1483 y_1647)))
(assert (forall ((x_46208 Nat_420) (y_1647 Nat_420) (r_310 Nat_420))
	(=> (add_267 r_310 x_46208 y_1647)
	    (add_267 (S_350 r_310) (S_350 x_46208) y_1647))))
(assert (forall ((y_1647 Nat_420))
	(minus_264 Z_1483 Z_1483 y_1647)))
(assert (forall ((x_46208 Nat_420) (y_1647 Nat_420) (r_310 Nat_420))
	(=> (minus_264 r_310 x_46208 y_1647)
	    (minus_264 (S_350 r_310) (S_350 x_46208) y_1647))))
(assert (forall ((y_1647 Nat_420))
	(le_249 Z_1483 y_1647)))
(assert (forall ((x_46208 Nat_420) (y_1647 Nat_420))
	(=> (le_249 x_46208 y_1647)
	    (le_249 (S_350 x_46208) (S_350 y_1647)))))
(assert (forall ((y_1647 Nat_420))
	(ge_249 y_1647 Z_1483)))
(assert (forall ((x_46208 Nat_420) (y_1647 Nat_420))
	(=> (ge_249 x_46208 y_1647)
	    (ge_249 (S_350 x_46208) (S_350 y_1647)))))
(assert (forall ((y_1647 Nat_420))
	(lt_265 Z_1483 (S_350 y_1647))))
(assert (forall ((x_46208 Nat_420) (y_1647 Nat_420))
	(=> (lt_265 x_46208 y_1647)
	    (lt_265 (S_350 x_46208) (S_350 y_1647)))))
(assert (forall ((y_1647 Nat_420))
	(gt_252 (S_350 y_1647) Z_1483)))
(assert (forall ((x_46208 Nat_420) (y_1647 Nat_420))
	(=> (gt_252 x_46208 y_1647)
	    (gt_252 (S_350 x_46208) (S_350 y_1647)))))
(assert (forall ((y_1647 Nat_420))
	(mult_249 Z_1483 Z_1483 y_1647)))
(assert (forall ((x_46208 Nat_420) (y_1647 Nat_420) (r_310 Nat_420) (z_1484 Nat_420))
	(=>	(and (mult_249 r_310 x_46208 y_1647)
			(add_267 z_1484 r_310 y_1647))
		(mult_249 z_1484 (S_350 x_46208) y_1647))))
(assert (forall ((x_46208 Nat_420) (y_1647 Nat_420))
	(=> (lt_265 x_46208 y_1647)
	    (div_249 Z_1483 x_46208 y_1647))))
(assert (forall ((x_46208 Nat_420) (y_1647 Nat_420) (r_310 Nat_420) (z_1484 Nat_420))
	(=>	(and (ge_249 x_46208 y_1647)
			(minus_264 z_1484 x_46208 y_1647)
			(div_249 r_310 z_1484 y_1647))
		(div_249 (S_350 r_310) x_46208 y_1647))))
(assert (forall ((x_46208 Nat_420) (y_1647 Nat_420))
	(=> (lt_265 x_46208 y_1647)
	    (mod_251 x_46208 x_46208 y_1647))))
(assert (forall ((x_46208 Nat_420) (y_1647 Nat_420) (r_310 Nat_420) (z_1484 Nat_420))
	(=>	(and (ge_249 x_46208 y_1647)
			(minus_264 z_1484 x_46208 y_1647)
			(mod_251 r_310 z_1484 y_1647))
		(mod_251 r_310 x_46208 y_1647))))
(declare-fun sum_0 (Nat_420 Nat_420) Bool)
(assert (sum_0 Z_1483 Z_1483))
(assert (forall ((x_46210 Nat_420) (x_46200 Nat_420) (x_46201 Nat_420) (x_46197 Nat_420))
	(=>	(and (diseqNat_420 x_46197 Z_1483)
			(sum_0 x_46201 x_46210)
			(minus_264 x_46210 x_46197 (S_350 Z_1483))
			(add_267 x_46200 x_46201 x_46197))
		(sum_0 x_46200 x_46197))))
(declare-fun cubes_0 (Nat_420 Nat_420) Bool)
(assert (cubes_0 Z_1483 Z_1483))
(assert (forall ((x_46214 Nat_420) (x_46211 Nat_420) (x_46212 Nat_420) (x_46203 Nat_420) (x_46204 Nat_420) (x_46198 Nat_420))
	(=>	(and (diseqNat_420 x_46198 Z_1483)
			(cubes_0 x_46204 x_46214)
			(minus_264 x_46214 x_46198 (S_350 Z_1483))
			(mult_249 x_46211 x_46198 x_46198)
			(mult_249 x_46212 x_46211 x_46198)
			(add_267 x_46203 x_46204 x_46212))
		(cubes_0 x_46203 x_46198))))
(assert (forall ((x_46215 Nat_420) (x_46205 Nat_420) (x_46206 Nat_420) (x_46207 Nat_420) (n_85 Nat_420))
	(=>	(and true
			(diseqNat_420 x_46205 x_46215)
			(cubes_0 x_46205 n_85)
			(sum_0 x_46206 n_85)
			(sum_0 x_46207 n_85)
			(mult_249 x_46215 x_46206 x_46207))
		false)))
(check-sat)
